GLPSOL: GLPK LP/MIP Solver, v4.55
Parameter(s) specified in the command line:
 -m tmp.mod
Reading model section from tmp.mod...
Reading data section from tmp.mod...
3446 lines were read
Generating obj...
Generating kirhoff...
Generating init_charge...
Generating batt_size...
Model has been successfully generated
GLPK Simplex Optimizer, v4.55
5640 rows, 5761 columns, 11782 non-zeros
Preprocessing...
3123 rows, 5653 columns, 11606 non-zeros
Scaling...
 A: min|aij| =  1.000e+00  max|aij| =  1.000e+00  ratio =  1.000e+00
Problem data seem to be well scaled
Constructing initial basis...
Size of triangular part is 2307
      0: obj =   0.000000000e+00  infeas =  3.254e+03 (816)
    500: obj =   8.800000000e+01  infeas =  7.540e+02 (590)
*   696: obj =   2.420000000e+02  infeas =  0.000e+00 (554)
*   849: obj =   9.400000000e+01  infeas =  0.000e+00 (550)
OPTIMAL LP SOLUTION FOUND
Time used:   0.2 secs
Memory used: 12.3 Mb (12933580 bytes)
#OUTPUT:
94
-39 0 -1 -5 -14 0 0 -1 -21 -22 -5 0 14 -21 -4 0 -1 0 -3 0 0 0 0 0 0 0 8 0 -19 0 0 0 0 0 0 0 0 0 0 0 0 -4 0 0 0 0 0 0 0 8 0 0 0 0 0 0 0 0 5 0 -5 0 0 0 -11 0 0 0 0 0 0 0 0 0 0 0 0 0 0 0 0 0 0 0 0 0 0 0 0 0 0 0 0 0 0 0 0 -4 0 0 0 0 0 0 0 0 0 0 0 0 0 0 0 0 0 0 0 0 0 0 0 0 0 0 0 0 0 0 0 0 0 0 0 0 0 0 0 -4 0 0 -4 0 0 0 -4 0 0 0 0 0 0 0 0 0 0 0 0 0 -3 0 0 0 0 0 5 0 0 0 0 0 0 8 0 1 0 0 0 5 8 0 0 0 0 0 0 0 0 0 0 0 0 0 0 0 4 0 0 0 0 0 3 0 9 -19 5 0 0 -4 -4 0 0 0 0 0 0 0 0 0 0 0 0 0 0 0 0 0 0 0 0 0 0 0 0 0 0 0 0 0 0 0 0 0 0 0 0 0 0 0 0 0 0 0 0 0 0 0 0 0 0 0 0 0 0 0 0 0 0 0 0 0 0 0 0 0 0 0 0 0 0 0 0 0 0 0 0 0 0 0 0 0 0 0 0 0 0 0 0 0 0 0 0 0 0 0 0 0 
-85 -42 -53 0 -81 0 0 -30 -4 1 0 0 -7 -4 -4 0 -30 -18 0 0 0 -23 0 -84 7 0 -26 0 0 0 0 0 0 0 0 0 0 0 0 0 -6 0 0 0 0 0 0 0 0 0 0 0 0 0 0 0 0 -7 0 7 0 0 0 0 -19 0 0 0 0 0 0 0 0 0 0 0 0 0 0 0 0 0 0 0 0 -56 0 -26 0 0 0 -23 0 0 0 0 0 0 0 0 -23 0 0 0 0 0 0 0 0 0 0 0 0 0 0 0 0 0 0 0 0 0 0 0 0 0 0 0 0 0 0 -50 0 18 0 0 0 0 0 0 0 0 0 0 0 0 0 0 0 0 0 0 0 0 0 0 0 -35 0 0 0 0 0 0 0 0 0 0 0 0 0 -35 0 30 0 0 7 0 0 0 0 7 0 0 56 0 56 -6 0 0 0 0 -18 0 0 0 0 0 0 35 0 0 -7 0 7 0 0 35 0 0 0 0 0 0 0 0 0 0 0 0 0 0 0 0 0 0 0 0 0 0 0 0 0 0 0 0 0 0 0 0 0 0 0 0 0 0 0 0 0 0 0 0 0 0 0 0 0 0 0 0 0 0 0 0 0 0 0 0 0 0 0 0 0 0 0 0 0 0 0 0 0 0 0 0 0 0 0 0 0 0 0 0 0 0 0 0 0 0 0 0 0 0 0 0 0 0 
-81 -66 -25 0 -81 0 0 -24 0 -18 0 0 -13 0 -4 0 -17 -55 -81 0 0 -1 0 0 63 -1 -19 0 0 0 0 0 0 0 0 0 0 0 -1 0 0 0 0 0 0 0 0 0 0 0 0 0 0 0 0 0 -13 -63 0 0 0 -81 0 0 0 0 0 0 -3 0 0 0 0 0 0 -7 0 0 0 0 0 0 0 0 0 -44 0 -19 0 0 0 0 0 0 0 0 -3 0 0 0 0 0 -74 0 0 0 0 0 0 0 0 0 0 0 0 0 0 0 0 0 0 0 0 0 0 0 0 0 0 0 4 0 0 -19 0 0 0 0 0 0 0 0 0 0 0 0 0 0 0 0 0 0 -4 0 0 0 0 0 0 0 0 0 0 0 0 -13 0 0 0 3 -3 0 0 17 0 0 63 0 0 0 0 0 0 0 51 0 44 0 0 0 0 0 19 0 0 0 0 4 0 0 0 0 0 0 0 0 3 0 0 0 0 0 0 0 0 0 0 0 0 0 0 0 0 0 0 0 0 0 0 0 0 0 0 0 0 0 0 0 0 0 0 0 0 0 0 0 0 0 0 0 0 0 0 0 0 0 0 0 0 0 0 0 0 0 0 0 0 0 0 0 0 0 0 0 0 0 0 0 0 0 0 0 0 0 0 0 0 0 0 0 0 0 0 0 0 0 0 0 0 0 0 0 0 0 0 0 
-4 -13 -43 0 -4 0 0 -27 0 -4 0 0 0 0 0 0 -27 0 -4 0 0 -16 0 0 0 -10 0 0 0 0 0 -8 0 0 0 0 0 0 -10 0 0 0 0 0 0 0 0 0 0 0 0 0 0 0 0 0 0 0 0 0 0 -4 0 0 -19 0 0 0 -3 0 -76 0 0 0 0 0 0 0 0 0 0 0 10 -82 0 0 0 0 0 0 0 0 0 0 0 0 -3 0 0 0 0 0 0 0 0 0 0 0 0 0 0 0 0 0 0 0 0 0 0 0 0 0 0 0 0 10 0 0 0 0 -4 0 0 0 10 0 0 0 0 0 0 0 0 0 0 0 0 0 0 0 0 0 4 0 0 0 0 -10 0 0 0 0 0 0 0 0 0 0 0 62 -3 0 0 27 0 0 0 0 0 10 0 0 -6 0 0 0 0 0 0 0 0 0 0 -10 0 0 0 -4 0 10 0 0 0 0 0 -59 3 0 0 0 0 0 0 0 0 0 0 0 0 0 0 0 0 0 0 0 0 0 0 0 0 0 0 0 0 0 0 0 0 0 0 0 0 0 0 0 0 0 0 0 0 0 0 0 0 0 0 0 0 0 0 0 0 0 0 0 0 0 0 0 0 0 0 0 0 0 0 0 0 0 0 0 0 0 0 0 0 0 0 0 0 0 0 0 0 0 0 0 0 0 0 0 0 0 0 0 
-85 -81 -46 -57 -63 0 9 -31 -18 -63 -62 -4 -7 0 -4 0 -26 -18 -69 0 0 0 0 0 0 0 0 0 0 -85 0 0 0 0 0 18 0 0 0 0 6 -4 0 0 0 0 0 0 0 0 0 0 0 0 1 0 0 0 0 7 5 0 2 0 -19 0 9 0 0 0 0 0 -10 0 0 -7 0 0 0 0 0 0 11 0 0 0 0 0 0 0 0 0 0 -6 0 0 0 5 0 0 0 0 0 0 0 0 0 0 0 0 0 0 0 0 0 0 0 0 0 0 0 0 0 0 0 11 0 0 0 0 0 0 0 18 11 18 0 -4 0 0 5 0 0 0 5 -12 0 0 0 0 0 0 0 0 0 18 0 -19 -69 0 0 0 18 -18 0 0 0 0 0 0 0 -5 0 26 0 0 0 -5 0 12 -15 7 0 10 7 0 0 6 0 0 0 0 -18 -11 4 0 0 0 0 19 0 18 -7 0 7 0 0 0 5 0 0 0 0 0 0 0 0 0 0 0 0 0 0 0 0 0 0 0 0 0 0 0 0 0 0 0 0 0 0 0 0 0 0 0 0 0 0 0 0 0 0 0 0 0 0 0 0 0 0 0 0 0 0 0 0 0 0 0 0 0 0 0 0 0 0 0 0 0 0 0 0 0 0 0 0 0 0 0 0 0 0 0 0 0 0 0 0 0 0 0 0 0 0 0 0 0 
-85 -81 -53 0 -48 -7 28 -11 -33 0 -39 11 -38 -33 4 0 -18 0 0 0 -58 -14 -7 0 19 10 -15 0 -19 10 0 8 3 -15 0 -49 0 0 10 0 0 -4 0 0 0 0 0 0 0 0 0 0 0 0 1 0 0 -19 -5 0 0 0 0 0 19 0 28 0 0 -7 0 0 -10 0 0 7 0 0 0 0 15 0 -1 0 0 -26 0 0 0 0 0 -24 0 0 0 0 0 5 0 0 23 -15 0 0 0 0 0 0 0 -47 0 0 0 0 0 0 0 0 0 0 0 0 0 0 0 -1 0 0 0 0 0 0 0 0 -1 -49 0 -4 0 0 5 0 -47 0 5 0 0 0 0 0 0 0 0 0 0 -49 0 -62 0 0 0 0 0 0 -5 0 0 0 0 10 0 10 0 18 0 0 19 0 0 0 -28 0 0 10 19 0 26 0 15 0 0 0 0 1 4 0 0 0 0 -10 0 0 -33 -22 -12 -10 0 -15 5 0 0 0 0 0 0 0 0 0 0 0 0 0 0 0 0 0 0 0 0 0 0 0 0 0 0 0 0 0 0 0 0 0 0 0 0 0 0 0 0 0 0 0 0 0 0 0 0 0 0 0 0 0 0 0 0 0 0 0 0 0 0 0 0 0 0 0 0 0 0 0 0 0 0 0 0 0 0 0 0 0 0 0 0 0 0 0 0 0 0 0 0 0 0 0 0 0 
0 -44 0 0 0 0 0 0 0 0 0 0 0 0 0 0 0 0 -6 0 0 0 0 0 14 0 0 0 -8 0 0 0 -3 0 -68 0 0 0 0 0 0 0 0 0 0 0 0 0 0 0 0 0 0 0 0 0 0 -14 0 0 0 0 0 6 0 0 0 0 0 0 0 0 0 0 0 0 0 0 0 0 0 0 30 0 0 0 0 0 0 0 0 0 0 0 0 0 0 0 0 0 0 0 0 0 0 0 0 0 0 0 0 0 0 0 0 0 0 0 0 0 0 0 0 0 -6 30 0 0 0 0 0 0 0 0 30 0 0 0 0 0 0 0 0 0 0 0 0 0 0 0 0 0 0 0 0 0 0 -30 -6 0 0 0 0 0 0 0 0 0 0 0 0 0 0 0 0 0 14 0 0 30 0 0 0 0 0 0 0 0 0 0 0 6 0 -30 0 0 0 0 0 30 6 0 0 -5 5 0 0 0 0 0 0 0 0 0 0 0 0 0 0 0 0 0 0 0 0 0 0 0 0 0 0 0 0 0 0 0 0 0 0 0 0 0 0 0 0 0 0 0 0 0 0 0 0 0 0 0 0 0 0 0 0 0 0 0 0 0 0 0 0 0 0 0 0 0 0 0 0 0 0 0 0 0 0 0 0 0 0 0 0 0 0 0 0 0 0 0 0 0 0 0 0 0 0 0 0 0 
-65 -20 -35 -20 -32 -7 0 -29 -33 -25 4 -24 -24 -33 4 0 -4 0 -6 0 -8 -6 -7 0 0 0 0 0 -19 4 0 0 7 8 0 0 0 0 0 0 0 0 0 0 0 0 0 0 0 -8 0 0 0 0 0 0 0 0 5 0 0 0 0 2 -8 0 0 0 0 -7 6 0 -4 0 0 0 0 0 0 0 -8 0 -44 0 0 0 0 0 0 0 0 0 0 0 0 0 0 4 0 0 0 8 0 0 -62 0 0 0 0 0 0 0 0 0 0 0 0 0 0 0 0 0 0 0 -2 -44 0 -62 0 0 0 0 0 0 -44 0 0 0 0 0 4 0 0 0 4 0 0 0 0 0 0 0 0 -44 0 0 0 0 -6 0 0 0 0 0 5 0 0 0 0 -6 0 -8 0 4 0 0 0 0 -8 0 0 0 -6 4 0 0 0 0 -8 0 0 2 0 0 0 0 0 0 0 0 6 0 33 -26 -12 6 0 4 4 0 0 0 0 0 0 0 0 0 0 0 0 0 0 0 0 0 0 0 0 0 0 0 0 0 0 0 0 0 0 0 0 0 0 0 0 0 0 0 0 0 0 0 0 0 0 0 0 0 0 0 0 0 0 0 0 0 0 0 0 0 0 0 0 0 0 0 0 0 0 0 0 0 0 0 0 0 0 0 0 0 0 0 0 0 0 0 0 0 0 0 0 0 0 0 0 0 
-42 -23 -53 0 -9 -2 22 -31 -33 0 2 -24 2 -27 4 0 -38 0 0 0 -52 0 -2 0 0 0 0 0 0 0 -4 8 0 0 0 6 0 0 0 0 0 0 0 0 0 0 0 0 0 0 0 0 0 0 0 4 0 0 2 0 0 0 0 0 19 0 22 0 -3 -2 0 0 0 0 0 7 0 0 0 0 -52 0 16 0 0 -7 0 0 0 0 0 0 0 0 0 0 -3 0 0 0 0 0 0 0 0 0 0 0 0 0 0 0 0 0 0 0 0 0 0 0 0 0 0 0 0 16 0 0 0 0 0 0 0 0 16 6 0 0 0 0 0 0 0 0 0 0 0 0 0 0 0 0 0 0 0 6 0 -20 0 0 0 0 6 -6 2 0 0 0 0 0 -3 -4 0 -61 0 -4 0 0 0 16 -22 0 0 0 0 0 7 0 -52 0 0 0 0 -16 0 0 0 0 0 20 0 6 0 0 -2 3 3 4 0 0 0 0 0 0 0 0 0 0 0 0 0 0 0 0 0 0 0 0 0 0 0 0 0 0 0 0 0 0 0 0 0 0 0 0 0 0 0 0 0 0 0 0 0 0 0 0 0 0 0 0 0 0 0 0 0 0 0 0 0 0 0 0 0 0 0 0 0 0 0 0 0 0 0 0 0 0 0 0 0 0 0 0 0 0 0 0 0 0 0 0 0 0 0 0 0 0 
#OUTPUT END
Model has been successfully processed
